(set-info :smt-lib-version 2.6)
(set-logic QF_S)
(set-info :source |
Generated by: Murphy Berzish, Mitja Kulczynski, Federico Mora, Florin Manea, Joel Day, Dirk Nowotka, Vijay Ganesh, Zhengyang Lu
Generated on: 2020-10-01
Description: Translated from a collection of real-world regex queries, AutomataArk, collected by Loris D’Antoni and Fang Wang: https://github.com/lorisdanto/automatark
Application: Evaluate solvers on real-world regex queries
Target solver: Z3str3RE, CVC4, OSTRICH, Z3seq, Z3str3, Z3-Trau
Publications: Berzish, M., Kulczynski, M., Mora, F., Manea, F., Day, J. D., Nowotka, D., & Ganesh, V. (2021, July). An SMT solver for regular expressions and linear arithmetic over string length. In CAV 2021.
|)
(set-info :license "https://creativecommons.org/licenses/by/4.0/")
(set-info :category "industrial")
(set-info :status unsat)

(declare-const X String)
(assert (str.in_re X (re.++ (re.opt (re.++ (str.to_re "://") (re.union (str.to_re "ht") (str.to_re "f")) (str.to_re "tp") (re.opt (str.to_re "s")))) (re.opt (re.++ ((_ re.loop 3 3) (str.to_re "w")) (re.comp (str.to_re "w")))) (re.union (str.to_re "w") (str.to_re "{") (str.to_re "4") (str.to_re "}")) (re.comp (str.to_re "@")) (re.+ (re.++ (re.+ (re.union (re.range "0" "9") (re.range "a" "z") (re.range "A" "Z") (str.to_re "-"))) (str.to_re "."))) ((_ re.loop 2 6) (re.union (re.range "a" "z") (re.range "A" "Z"))) (re.opt (re.++ (str.to_re ":") (re.+ (re.range "0" "9")))) (re.opt (re.++ (str.to_re "/") (re.* (re.comp (re.union (str.to_re " ") (str.to_re "\u{9}") (str.to_re "\u{a}") (str.to_re "\u{c}") (str.to_re "\u{d}")))))) (str.to_re "\u{a}"))))
(assert (str.in_re X (re.++ (re.+ (re.comp (re.union (str.to_re " ") (str.to_re "\u{9}") (str.to_re "\u{a}") (str.to_re "\u{c}") (str.to_re "\u{d}")))) (str.to_re "\u{a}[") (re.union (str.to_re "I") (str.to_re "i")) (re.union (str.to_re "M") (str.to_re "m")) (re.union (str.to_re "G") (str.to_re "g")) (str.to_re "][/") (re.union (str.to_re "I") (str.to_re "i")) (re.union (str.to_re "M") (str.to_re "m")) (re.union (str.to_re "G") (str.to_re "g")) (str.to_re "]"))))
(assert (not (str.in_re X (re.++ (re.opt (str.to_re "-")) (re.+ (re.range "0" "9")) (re.opt (re.++ (re.opt (re.union (str.to_re ".") (str.to_re ","))) (re.+ (re.range "0" "9")))) (str.to_re "\u{a}")))))
(assert (str.in_re X (re.++ (str.to_re "upgrade.qsrch.info") (re.* (re.union (str.to_re "\u{a}") (str.to_re "\u{d}"))) (str.to_re "dcww.dmcast.com\u{a}"))))
(assert (str.in_re X (re.++ (str.to_re "href=") (re.union (str.to_re "\u{22}") (str.to_re "'")) (re.opt (re.union (str.to_re "http://") (str.to_re "./") (str.to_re "/"))) (re.+ (re.union (re.range "0" "9") (re.range "A" "Z") (re.range "a" "z") (str.to_re "_"))) (re.* (re.++ (str.to_re ".") (re.+ (re.union (re.range "0" "9") (re.range "A" "Z") (re.range "a" "z") (str.to_re "_"))))) (re.* (re.++ (str.to_re "/") (re.+ (re.union (re.range "0" "9") (re.range "A" "Z") (re.range "a" "z") (str.to_re "_"))) (re.opt (re.++ (str.to_re ".") (re.+ (re.union (re.range "0" "9") (re.range "A" "Z") (re.range "a" "z") (str.to_re "_"))))))) (re.opt (re.union (str.to_re "/") (re.++ (str.to_re "?") (re.* (re.union (re.range "0" "9") (re.range "A" "Z") (re.range "a" "z") (str.to_re "_"))) (str.to_re "=") (re.* (re.union (re.range "0" "9") (re.range "A" "Z") (re.range "a" "z") (str.to_re "_"))) (re.* (re.++ (str.to_re "&") (re.* (re.union (re.range "0" "9") (re.range "A" "Z") (re.range "a" "z") (str.to_re "_"))) (str.to_re "=") (re.* (re.union (re.range "0" "9") (re.range "A" "Z") (re.range "a" "z") (str.to_re "_")))))))) (re.union (str.to_re "\u{22}") (str.to_re "'")) (str.to_re "\u{a}"))))
(check-sat)

(exit)
